c colouring generated by benchmark framework
p edge 95 755
v 1 4
v 2 5
v 3 1
v 4 0
v 5 4
v 6 3
v 7 0
v 8 3
v 9 0
v 10 3
v 11 2
v 12 3
v 13 2
v 14 6
v 15 6
v 16 5
v 17 3
v 18 6
v 19 3
v 20 6
v 21 3
v 22 2
v 23 1
v 24 1
v 25 5
v 26 1
v 27 1
v 28 5
v 29 1
v 30 0
v 31 1
v 32 0
v 33 3
v 34 5
v 35 3
v 36 5
v 37 6
v 38 5
v 39 5
v 40 3
v 41 0
v 42 3
v 43 0
v 44 3
v 45 5
v 46 0
v 47 4
v 48 3
v 49 0
v 50 1
v 51 0
v 52 2
v 53 4
v 54 0
v 55 0
v 56 0
v 57 4
v 58 2
v 59 2
v 60 2
v 61 2
v 62 2
v 63 4
v 64 3
v 65 3
v 66 6
v 67 3
v 68 4
v 69 4
v 70 1
v 71 1
v 72 0
v 73 1
v 74 0
v 75 2
v 76 1
v 77 0
v 78 0
v 79 0
v 80 3
v 81 1
v 82 6
v 83 0
v 84 6
v 85 0
v 86 6
v 87 3
v 88 0
v 89 6
v 90 0
v 91 6
v 92 6
v 93 0
v 94 2
v 95 5
